159
Route #1: 1 
Route #2: 2 28 87 
Route #3: 3 69 
Route #4: 4 57 
Route #5: 5 82 
Route #6: 6 
Route #7: 7 55 
Route #8: 8 35 
Route #9: 9 54 
Route #10: 10 
Route #11: 11 
Route #12: 12 43 103 
Route #13: 13 65 
Route #14: 14 80 
Route #15: 15 36 
Route #16: 16 67 89 
Route #17: 17 30 90 
Route #18: 18 79 
Route #19: 19 66 83 
Route #20: 20 84 
Route #21: 21 47 
Route #22: 22 63 117 
Route #23: 23 52 
Route #24: 24 81 
Route #25: 25 60 88 99 
Route #26: 26 
Route #27: 27 53 
Route #28: 29 59 
Route #29: 31 62 111 
Route #30: 32 
Route #31: 33 75 86 
Route #32: 34 
Route #33: 37 
Route #34: 38 56 78 
Route #35: 39 50 
Route #36: 40 91 105 
Route #37: 41 68 95 102 116 
Route #38: 42 51 
Route #39: 44 
Route #40: 45 61 
Route #41: 46 101 
Route #42: 48 71 104 
Route #43: 49 106 125 142 153 
Route #44: 58 113 154 
Route #45: 64 107 
Route #46: 70 114 137 
Route #47: 72 100 145 
Route #48: 73 94 122 
Route #49: 74 110 141 167 
Route #50: 76 98 156 
Route #51: 77 112 140 
Route #52: 85 131 183 
Route #53: 92 121 168 
Route #54: 93 162 
Route #55: 96 128 146 
Route #56: 97 120 173 
Route #57: 108 139 187 
Route #58: 109 119 193 
Route #59: 115 169 211 
Route #60: 118 201 
Route #61: 123 204 
Route #62: 124 175 
Route #63: 126 191 209 
Route #64: 127 176 226 
Route #65: 129 163 194 221 
Route #66: 130 148 181 215 
Route #67: 132 172 224 
Route #68: 133 196 230 
Route #69: 134 213 
Route #70: 135 179 228 
Route #71: 136 165 
Route #72: 138 155 184 238 
Route #73: 143 190 
Route #74: 144 189 231 
Route #75: 147 199 217 237 
Route #76: 149 164 205 242 
Route #77: 150 182 255 
Route #78: 151 192 210 229 
Route #79: 152 161 252 
Route #80: 157 220 
Route #81: 158 188 261 
Route #82: 159 227 
Route #83: 160 244 
Route #84: 166 185 234 
Route #85: 170 243 
Route #86: 171 222 266 
Route #87: 174 214 313 
Route #88: 177 247 299 
Route #89: 178 219 236 257 
Route #90: 180 264 
Route #91: 186 212 
Route #92: 195 233 
Route #93: 197 249 273 293 
Route #94: 198 245 323 
Route #95: 200 240 288 
Route #96: 202 223 235 314 
Route #97: 203 258 309 
Route #98: 206 262 
Route #99: 207 260 282 
Route #100: 208 225 294 
Route #101: 216 295 
Route #102: 218 246 286 
Route #103: 232 307 
Route #104: 239 291 
Route #105: 241 304 
Route #106: 248 278 316 342 
Route #107: 250 297 
Route #108: 251 
Route #109: 253 296 
Route #110: 254 329 
Route #111: 256 283 319 335 357 378 
Route #112: 259 287 343 
Route #113: 263 340 
Route #114: 265 354 
Route #115: 267 318 345 373 
Route #116: 268 350 
Route #117: 269 300 347 
Route #118: 270 321 352 
Route #119: 271 338 356 
Route #120: 272 332 348 391 
Route #121: 274 326 371 
Route #122: 275 346 396 
Route #123: 276 330 372 
Route #124: 277 353 
Route #125: 279 359 
Route #126: 280 310 337 377 
Route #127: 281 303 363 
Route #128: 284 322 375 
Route #129: 285 351 
Route #130: 289 361 
Route #131: 290 360 
Route #132: 292 367 385 
Route #133: 298 336 393 
Route #134: 301 344 392 
Route #135: 302 331 387 
Route #136: 305 379 
Route #137: 306 358 
Route #138: 308 374 
Route #139: 311 341 398 
Route #140: 312 327 369 395 
Route #141: 315 382 
Route #142: 317 362 
Route #143: 320 368 390 
Route #144: 324 364 383 394 
Route #145: 325 376 
Route #146: 328 365 
Route #147: 333 355 
Route #148: 334 388 
Route #149: 339 397 
Route #150: 349 
Route #151: 366 
Route #152: 370 
Route #153: 380 
Route #154: 381 
Route #155: 384 
Route #156: 386 
Route #157: 389 
Route #158: 399 
Route #159: 400 
Cost 268967.0
